15 40
25
3 11 0 27
3 13 12 20
2 9 0 0
2 7 10 33
3 9 12 0
3 7 12 33
2 11 6 14
2 13 0 9
4 11 8 16
4 13 8 3
5 3 2 0
2 11 6 3
2 2 6 25
3 11 12 9
3 2 0 38
4 5 2 4
4 6 2 9
2 12 8 27
2 1 8 39
5 3 7 0
5 13 3 27
4 12 2 15
4 1 2 3
2 5 0 22
2 6 10 27
